p cnf 15 24
-15 14 8 0
15 -14 3 0
15 13 -1 0
-15 11 5 0
15 9 -5 0
-15 2 -1 0
14 -10 -5 0
14 -9 -7 0
14 9 1 0
13 12 2 0
-13 -8 4 0
13 -7 -1 0
12 11 10 0
-12 10 -3 0
-11 9 8 0
11 7 -6 0
-11 6 1 0
-11 5 -4 0
-10 -5 -1 0
-9 8 1 0
9 5 3 0
6 3 -2 0
4 -3 2 0
3 2 1 0
